100 69,5643 32,2782 29,266
200 4509,1789 3268,19765 3200,9652
300 15765,5567 7256,755999999999 6301,3886
400 613,622 414,486875 408,5325
500 14704,3072 9610,8296 8422,8426
600 210,6646 161,861575 152,1874
700 5982,1206 4608,225625 4013,3611
800 11930,7595 9128,548725 8122,5953
900 1224,4561 1105,7861 1004,029
1000 13714,3468 11115,481625 10304,1081
